objective value:                                  -27
t_n_7                                               1 	(obj:-1)
t_n_148                                             1 	(obj:-1)
t_n_389                                             1 	(obj:-1)
t_n_412                                             1 	(obj:-1)
t_n_486                                             1 	(obj:-1)
t_n_519                                             1 	(obj:-1)
t_n_523                                             1 	(obj:-1)
t_n_528                                             1 	(obj:-1)
t_n_610                                             1 	(obj:-1)
t_n_674                                             1 	(obj:-1)
t_n_683                                             1 	(obj:-1)
t_n_690                                             1 	(obj:-1)
t_n_704                                             1 	(obj:-1)
t_n_711                                             1 	(obj:-1)
t_n_712                                             1 	(obj:-1)
t_n_828                                             1 	(obj:-1)
t_n_846                                             1 	(obj:-1)
t_n_862                                             1 	(obj:-1)
t_n_869                                             1 	(obj:-1)
t_n_885                                             1 	(obj:-1)
t_n_888                                             1 	(obj:-1)
t_n_893                                             1 	(obj:-1)
t_n_897                                             1 	(obj:-1)
t_n_918                                             1 	(obj:-1)
t_n_953                                             1 	(obj:-1)
t_n_989                                             1 	(obj:-1)
t_n_994                                             1 	(obj:-1)
